param n := 120;
param c := 10000
param : V : p w :=
   0	  98	 377
   1	  48	 284
   2	  44	 339
   3	  99	 366
   4	  62	 260
   5	  63	 374
   6	  75	 469
   7	  50	 253
   8	  12	 278
   9	  75	 397
  10	  55	 292
  11	  50	 311
  12	  85	 429
  13	  69	 260
  14	  16	 311
  15	  29	 448
  16	  11	 253
  17	  66	 299
  18	  31	 428
  19	  98	 269
  20	  63	 303
  21	  64	 491
  22	  93	 251
  23	  75	 258
  24	  12	 357
  25	  71	 265
  26	  35	 378
  27	  89	 350
  28	  39	 320
  29	  81	 330
  30	  40	 453
  31	  15	 250
  32	  33	 297
  33	  30	 380
  34	  60	 260
  35	  14	 360
  36	  46	 471
  37	  85	 258
  38	  76	 271
  39	  73	 391
  40	  98	 290
  41	  12	 319
  42	  63	 465
  43	  89	 254
  44	  35	 281
  45	  61	 420
  46	   3	 254
  47	  31	 326
  48	  67	 404
  49	  28	 297
  50	   4	 299
  51	  50	 364
  52	  82	 300
  53	  52	 336
  54	  21	 370
  55	  64	 303
  56	  63	 327
  57	  78	 358
  58	  15	 269
  59	  98	 373
  60	  95	 371
  61	   9	 254
  62	  30	 375
  63	  65	 451
  64	  32	 257
  65	  49	 292
  66	  21	 380
  67	  60	 295
  68	  35	 325
  69	  55	 357
  70	  86	 273
  71	  36	 370
  72	  27	 359
  73	  32	 318
  74	  95	 323
  75	   3	 457
  76	  21	 262
  77	  60	 281
  78	  83	 441
  79	  39	 255
  80	  18	 304
  81	  51	 468
  82	  75	 257
  83	  10	 275
  84	   2	 491
  85	  50	 252
  86	  88	 257
  87	  45	 359
  88	  59	 266
  89	  67	 375
  90	  48	 459
  91	  60	 252
  92	   9	 289
  93	   9	 427
  94	  12	 252
  95	  26	 321
  96	  80	 461
  97	  12	 263
  98	  53	 276
  99	  93	 425
 100	  83	 286
 101	  81	 289
 102	  26	 360
 103	  14	 277
 104	  21	 363
 105	  90	 402
 106	  71	 297
 107	  51	 301
 108	  56	 455
 109	  16	 260
 110	  74	 285
 111	  45	 493
 112	  98	 250
 113	  62	 257
 114	  13	 378
 115	  56	 299
 116	  94	 323
 117	  96	 390
 118	  85	 285
 119	  41	 325
;

set E :=
   0	   2
   0	   5
   0	   7
   0	   8
   0	   9
   0	  11
   0	  12
   0	  15
   0	  16
   0	  17
   0	  18
   0	  19
   0	  20
   0	  21
   0	  23
   0	  24
   0	  28
   0	  33
   0	  39
   0	  41
   0	  42
   0	  44
   0	  47
   0	  50
   0	  52
   0	  53
   0	  56
   0	  61
   0	  66
   0	  69
   0	  70
   0	  72
   0	  74
   0	  75
   0	  76
   0	  78
   0	  81
   0	  85
   0	  86
   0	  90
   0	  91
   0	  92
   0	  95
   0	  96
   0	  98
   0	 100
   0	 101
   0	 102
   0	 106
   0	 107
   0	 108
   0	 110
   0	 114
   0	 116
   0	 117
   1	   6
   1	   8
   1	   9
   1	  10
   1	  11
   1	  14
   1	  15
   1	  17
   1	  21
   1	  22
   1	  24
   1	  25
   1	  26
   1	  28
   1	  29
   1	  31
   1	  33
   1	  34
   1	  35
   1	  38
   1	  40
   1	  41
   1	  42
   1	  43
   1	  46
   1	  49
   1	  51
   1	  52
   1	  56
   1	  63
   1	  64
   1	  66
   1	  67
   1	  70
   1	  74
   1	  77
   1	  80
   1	  83
   1	  84
   1	  85
   1	  86
   1	  93
   1	  94
   1	  95
   1	  97
   1	  98
   1	  99
   1	 101
   1	 102
   1	 104
   1	 106
   1	 110
   1	 114
   1	 115
   1	 117
   1	 118
   2	   4
   2	   6
   2	   9
   2	  19
   2	  21
   2	  22
   2	  28
   2	  31
   2	  32
   2	  34
   2	  36
   2	  38
   2	  39
   2	  41
   2	  43
   2	  44
   2	  46
   2	  47
   2	  49
   2	  51
   2	  53
   2	  54
   2	  55
   2	  56
   2	  58
   2	  62
   2	  64
   2	  65
   2	  67
   2	  68
   2	  69
   2	  70
   2	  71
   2	  75
   2	  78
   2	  81
   2	  82
   2	  84
   2	  86
   2	  88
   2	  89
   2	  91
   2	  93
   2	  94
   2	  98
   2	 100
   2	 103
   2	 104
   2	 106
   2	 108
   2	 109
   2	 110
   2	 112
   2	 113
   2	 114
   2	 116
   2	 117
   2	 119
   3	   5
   3	   7
   3	   8
   3	  10
   3	  11
   3	  13
   3	  14
   3	  16
   3	  17
   3	  20
   3	  22
   3	  27
   3	  28
   3	  30
   3	  34
   3	  35
   3	  38
   3	  41
   3	  42
   3	  43
   3	  45
   3	  46
   3	  47
   3	  48
   3	  55
   3	  58
   3	  62
   3	  63
   3	  64
   3	  66
   3	  67
   3	  70
   3	  71
   3	  72
   3	  73
   3	  74
   3	  78
   3	  80
   3	  82
   3	  83
   3	  84
   3	  86
   3	  87
   3	  89
   3	  90
   3	  93
   3	  95
   3	  99
   3	 100
   3	 103
   3	 104
   3	 106
   3	 109
   3	 111
   3	 112
   3	 115
   3	 116
   3	 119
   4	   9
   4	  10
   4	  11
   4	  12
   4	  13
   4	  15
   4	  19
   4	  21
   4	  22
   4	  25
   4	  26
   4	  27
   4	  28
   4	  29
   4	  32
   4	  34
   4	  35
   4	  39
   4	  41
   4	  44
   4	  45
   4	  46
   4	  48
   4	  51
   4	  55
   4	  56
   4	  57
   4	  58
   4	  59
   4	  63
   4	  65
   4	  68
   4	  71
   4	  73
   4	  79
   4	  81
   4	  83
   4	  85
   4	  87
   4	  88
   4	  91
   4	  98
   4	  99
   4	 100
   4	 101
   4	 102
   4	 106
   4	 115
   4	 116
   4	 117
   5	   6
   5	   7
   5	  10
   5	  13
   5	  14
   5	  15
   5	  17
   5	  18
   5	  19
   5	  20
   5	  21
   5	  22
   5	  25
   5	  26
   5	  27
   5	  28
   5	  29
   5	  31
   5	  33
   5	  34
   5	  36
   5	  38
   5	  39
   5	  43
   5	  46
   5	  47
   5	  49
   5	  50
   5	  52
   5	  54
   5	  55
   5	  57
   5	  61
   5	  67
   5	  68
   5	  70
   5	  71
   5	  74
   5	  75
   5	  76
   5	  81
   5	  82
   5	  84
   5	  86
   5	  87
   5	  88
   5	  90
   5	  91
   5	  92
   5	  94
   5	  96
   5	  97
   5	 103
   5	 104
   5	 106
   5	 109
   5	 113
   5	 114
   5	 115
   5	 118
   5	 119
   6	   9
   6	  11
   6	  12
   6	  13
   6	  14
   6	  15
   6	  18
   6	  19
   6	  20
   6	  23
   6	  24
   6	  26
   6	  27
   6	  28
   6	  29
   6	  30
   6	  33
   6	  34
   6	  37
   6	  39
   6	  41
   6	  42
   6	  44
   6	  45
   6	  49
   6	  50
   6	  52
   6	  53
   6	  56
   6	  57
   6	  60
   6	  62
   6	  63
   6	  64
   6	  65
   6	  68
   6	  69
   6	  70
   6	  71
   6	  73
   6	  74
   6	  76
   6	  78
   6	  81
   6	  82
   6	  83
   6	  84
   6	  86
   6	  87
   6	  89
   6	  91
   6	  94
   6	  96
   6	  99
   6	 101
   6	 102
   6	 103
   6	 104
   6	 107
   6	 108
   6	 110
   6	 111
   6	 112
   6	 113
   6	 114
   6	 115
   6	 118
   6	 119
   7	   8
   7	   9
   7	  13
   7	  15
   7	  17
   7	  19
   7	  20
   7	  22
   7	  24
   7	  26
   7	  27
   7	  29
   7	  30
   7	  31
   7	  32
   7	  34
   7	  35
   7	  37
   7	  38
   7	  39
   7	  47
   7	  48
   7	  49
   7	  50
   7	  52
   7	  56
   7	  58
   7	  63
   7	  64
   7	  65
   7	  66
   7	  67
   7	  68
   7	  70
   7	  71
   7	  73
   7	  75
   7	  79
   7	  81
   7	  83
   7	  84
   7	  85
   7	  86
   7	  90
   7	  91
   7	  95
   7	  96
   7	  98
   7	  99
   7	 101
   7	 104
   7	 105
   7	 106
   7	 107
   7	 108
   7	 109
   7	 111
   7	 112
   7	 113
   7	 117
   8	  11
   8	  12
   8	  13
   8	  16
   8	  18
   8	  19
   8	  22
   8	  35
   8	  38
   8	  41
   8	  44
   8	  49
   8	  52
   8	  53
   8	  56
   8	  58
   8	  59
   8	  60
   8	  61
   8	  62
   8	  63
   8	  66
   8	  67
   8	  68
   8	  69
   8	  72
   8	  74
   8	  75
   8	  76
   8	  78
   8	  82
   8	  83
   8	  84
   8	  86
   8	  89
   8	  92
   8	  93
   8	  95
   8	  98
   8	  99
   8	 100
   8	 101
   8	 103
   8	 104
   8	 107
   8	 109
   8	 110
   8	 113
   8	 115
   8	 117
   8	 118
   8	 119
   9	  10
   9	  14
   9	  15
   9	  16
   9	  18
   9	  19
   9	  21
   9	  23
   9	  24
   9	  27
   9	  28
   9	  30
   9	  33
   9	  34
   9	  35
   9	  39
   9	  40
   9	  42
   9	  46
   9	  48
   9	  49
   9	  51
   9	  52
   9	  53
   9	  54
   9	  55
   9	  57
   9	  59
   9	  61
   9	  63
   9	  65
   9	  67
   9	  72
   9	  75
   9	  78
   9	  81
   9	  82
   9	  83
   9	  84
   9	  85
   9	  86
   9	  91
   9	  92
   9	  95
   9	  97
   9	 100
   9	 102
   9	 108
   9	 109
   9	 111
   9	 112
   9	 113
   9	 114
   9	 116
  10	  14
  10	  15
  10	  16
  10	  18
  10	  19
  10	  21
  10	  23
  10	  25
  10	  26
  10	  27
  10	  29
  10	  30
  10	  31
  10	  33
  10	  38
  10	  39
  10	  40
  10	  41
  10	  43
  10	  45
  10	  46
  10	  52
  10	  53
  10	  54
  10	  56
  10	  58
  10	  59
  10	  61
  10	  63
  10	  64
  10	  68
  10	  72
  10	  74
  10	  75
  10	  78
  10	  80
  10	  82
  10	  86
  10	  89
  10	  90
  10	  92
  10	  93
  10	  94
  10	  96
  10	  97
  10	  98
  10	  99
  10	 101
  10	 103
  10	 104
  10	 105
  10	 112
  10	 113
  10	 114
  10	 116
  10	 118
  10	 119
  11	  12
  11	  13
  11	  20
  11	  23
  11	  25
  11	  27
  11	  28
  11	  29
  11	  30
  11	  32
  11	  33
  11	  34
  11	  35
  11	  36
  11	  37
  11	  38
  11	  39
  11	  44
  11	  46
  11	  47
  11	  49
  11	  50
  11	  51
  11	  53
  11	  54
  11	  55
  11	  57
  11	  60
  11	  61
  11	  62
  11	  63
  11	  64
  11	  65
  11	  67
  11	  69
  11	  70
  11	  72
  11	  77
  11	  78
  11	  80
  11	  81
  11	  83
  11	  84
  11	  85
  11	  87
  11	  88
  11	  90
  11	  91
  11	  93
  11	  94
  11	  95
  11	  96
  11	  97
  11	  98
  11	 101
  11	 103
  11	 104
  11	 105
  11	 109
  11	 110
  11	 112
  11	 113
  11	 115
  11	 117
  11	 118
  11	 119
  12	  14
  12	  18
  12	  20
  12	  22
  12	  23
  12	  24
  12	  27
  12	  32
  12	  33
  12	  34
  12	  37
  12	  38
  12	  39
  12	  42
  12	  43
  12	  44
  12	  45
  12	  46
  12	  47
  12	  50
  12	  53
  12	  55
  12	  59
  12	  61
  12	  66
  12	  68
  12	  75
  12	  77
  12	  81
  12	  82
  12	  83
  12	  85
  12	  89
  12	  91
  12	  92
  12	  93
  12	  94
  12	  96
  12	  97
  12	  99
  12	 100
  12	 102
  12	 103
  12	 104
  12	 106
  12	 111
  12	 112
  12	 114
  12	 115
  12	 116
  12	 118
  13	  16
  13	  17
  13	  18
  13	  19
  13	  20
  13	  21
  13	  22
  13	  23
  13	  27
  13	  28
  13	  31
  13	  34
  13	  35
  13	  38
  13	  50
  13	  51
  13	  55
  13	  56
  13	  57
  13	  60
  13	  61
  13	  63
  13	  65
  13	  68
  13	  72
  13	  77
  13	  78
  13	  79
  13	  80
  13	  81
  13	  82
  13	  83
  13	  85
  13	  86
  13	  91
  13	  93
  13	  99
  13	 101
  13	 104
  13	 105
  13	 108
  13	 109
  13	 110
  13	 112
  13	 115
  14	  15
  14	  16
  14	  19
  14	  21
  14	  22
  14	  23
  14	  24
  14	  25
  14	  27
  14	  30
  14	  43
  14	  45
  14	  46
  14	  47
  14	  52
  14	  53
  14	  54
  14	  55
  14	  57
  14	  64
  14	  66
  14	  68
  14	  72
  14	  73
  14	  76
  14	  77
  14	  78
  14	  80
  14	  82
  14	  83
  14	  84
  14	  86
  14	  87
  14	  88
  14	  89
  14	  93
  14	  94
  14	  96
  14	  98
  14	  99
  14	 101
  14	 102
  14	 104
  14	 105
  14	 112
  14	 113
  14	 116
  14	 119
  15	  20
  15	  23
  15	  24
  15	  26
  15	  29
  15	  30
  15	  32
  15	  34
  15	  38
  15	  41
  15	  42
  15	  43
  15	  46
  15	  47
  15	  48
  15	  51
  15	  53
  15	  55
  15	  57
  15	  59
  15	  62
  15	  64
  15	  65
  15	  66
  15	  74
  15	  76
  15	  78
  15	  82
  15	  84
  15	  86
  15	  87
  15	  88
  15	  89
  15	  90
  15	  92
  15	  93
  15	  94
  15	  97
  15	  99
  15	 107
  15	 108
  15	 110
  15	 111
  15	 113
  15	 116
  15	 117
  15	 118
  15	 119
  16	  17
  16	  18
  16	  20
  16	  21
  16	  22
  16	  23
  16	  24
  16	  26
  16	  28
  16	  30
  16	  31
  16	  34
  16	  35
  16	  37
  16	  38
  16	  40
  16	  42
  16	  44
  16	  45
  16	  50
  16	  56
  16	  57
  16	  58
  16	  60
  16	  61
  16	  62
  16	  65
  16	  69
  16	  72
  16	  74
  16	  78
  16	  79
  16	  80
  16	  81
  16	  82
  16	  86
  16	  89
  16	  92
  16	  94
  16	  96
  16	  97
  16	  98
  16	  99
  16	 104
  16	 105
  16	 106
  16	 107
  16	 108
  16	 110
  16	 112
  16	 114
  16	 115
  16	 116
  17	  19
  17	  21
  17	  22
  17	  26
  17	  28
  17	  31
  17	  34
  17	  39
  17	  43
  17	  44
  17	  45
  17	  46
  17	  51
  17	  57
  17	  58
  17	  61
  17	  67
  17	  69
  17	  70
  17	  71
  17	  73
  17	  74
  17	  77
  17	  80
  17	  81
  17	  82
  17	  85
  17	  87
  17	  88
  17	  89
  17	  91
  17	  95
  17	  98
  17	 101
  17	 102
  17	 103
  17	 104
  17	 107
  17	 108
  17	 113
  17	 114
  17	 115
  17	 116
  17	 118
  18	  19
  18	  21
  18	  22
  18	  23
  18	  24
  18	  25
  18	  26
  18	  28
  18	  30
  18	  33
  18	  37
  18	  38
  18	  40
  18	  44
  18	  45
  18	  46
  18	  47
  18	  52
  18	  53
  18	  54
  18	  57
  18	  60
  18	  61
  18	  63
  18	  64
  18	  66
  18	  71
  18	  73
  18	  75
  18	  76
  18	  77
  18	  78
  18	  80
  18	  83
  18	  88
  18	  89
  18	  91
  18	  93
  18	  94
  18	  96
  18	  97
  18	  98
  18	  99
  18	 100
  18	 102
  18	 104
  18	 106
  18	 107
  18	 109
  18	 114
  18	 116
  19	  21
  19	  23
  19	  24
  19	  28
  19	  34
  19	  35
  19	  36
  19	  37
  19	  38
  19	  44
  19	  45
  19	  47
  19	  48
  19	  50
  19	  52
  19	  53
  19	  56
  19	  57
  19	  59
  19	  63
  19	  64
  19	  67
  19	  68
  19	  69
  19	  72
  19	  75
  19	  81
  19	  82
  19	  83
  19	  84
  19	  87
  19	  90
  19	  91
  19	  93
  19	  98
  19	  99
  19	 100
  19	 104
  19	 107
  19	 108
  19	 109
  19	 110
  19	 112
  19	 114
  19	 117
  19	 118
  19	 119
  20	  21
  20	  23
  20	  26
  20	  29
  20	  30
  20	  32
  20	  34
  20	  35
  20	  38
  20	  40
  20	  43
  20	  44
  20	  46
  20	  47
  20	  50
  20	  51
  20	  52
  20	  53
  20	  55
  20	  57
  20	  60
  20	  62
  20	  63
  20	  65
  20	  66
  20	  67
  20	  69
  20	  70
  20	  73
  20	  75
  20	  76
  20	  77
  20	  78
  20	  80
  20	  81
  20	  82
  20	  83
  20	  85
  20	  87
  20	  89
  20	  91
  20	  97
  20	 100
  20	 101
  20	 108
  20	 109
  20	 110
  20	 113
  20	 114
  20	 115
  20	 117
  20	 119
  21	  24
  21	  27
  21	  31
  21	  32
  21	  33
  21	  34
  21	  36
  21	  41
  21	  44
  21	  45
  21	  47
  21	  48
  21	  49
  21	  53
  21	  54
  21	  55
  21	  56
  21	  57
  21	  58
  21	  59
  21	  61
  21	  64
  21	  68
  21	  69
  21	  71
  21	  72
  21	  73
  21	  74
  21	  76
  21	  77
  21	  79
  21	  80
  21	  81
  21	  82
  21	  83
  21	  89
  21	  91
  21	  95
  21	  96
  21	  99
  21	 100
  21	 101
  21	 102
  21	 104
  21	 105
  21	 106
  21	 108
  21	 112
  21	 113
  21	 117
  21	 118
  21	 119
  22	  24
  22	  27
  22	  28
  22	  30
  22	  31
  22	  32
  22	  33
  22	  35
  22	  37
  22	  38
  22	  41
  22	  43
  22	  45
  22	  47
  22	  53
  22	  54
  22	  55
  22	  57
  22	  58
  22	  60
  22	  61
  22	  62
  22	  66
  22	  72
  22	  73
  22	  74
  22	  79
  22	  81
  22	  82
  22	  83
  22	  84
  22	  85
  22	  86
  22	  88
  22	  92
  22	  94
  22	  96
  22	 101
  22	 102
  22	 103
  22	 104
  22	 105
  22	 106
  22	 108
  22	 109
  22	 110
  22	 111
  22	 112
  22	 114
  22	 115
  23	  24
  23	  25
  23	  26
  23	  28
  23	  30
  23	  31
  23	  33
  23	  35
  23	  37
  23	  38
  23	  40
  23	  42
  23	  43
  23	  44
  23	  45
  23	  46
  23	  48
  23	  49
  23	  50
  23	  52
  23	  54
  23	  55
  23	  56
  23	  57
  23	  58
  23	  59
  23	  60
  23	  61
  23	  64
  23	  65
  23	  66
  23	  69
  23	  71
  23	  72
  23	  73
  23	  74
  23	  78
  23	  80
  23	  81
  23	  82
  23	  83
  23	  87
  23	  90
  23	  93
  23	  95
  23	  96
  23	 101
  23	 103
  23	 105
  23	 109
  23	 110
  23	 111
  23	 113
  23	 114
  23	 117
  23	 119
  24	  27
  24	  28
  24	  32
  24	  33
  24	  35
  24	  40
  24	  41
  24	  43
  24	  46
  24	  47
  24	  48
  24	  50
  24	  51
  24	  54
  24	  55
  24	  57
  24	  58
  24	  59
  24	  60
  24	  62
  24	  63
  24	  64
  24	  65
  24	  66
  24	  67
  24	  77
  24	  78
  24	  81
  24	  83
  24	  85
  24	  86
  24	  88
  24	  89
  24	  90
  24	  91
  24	  92
  24	  93
  24	  94
  24	  95
  24	  96
  24	  99
  24	 100
  24	 101
  24	 104
  24	 106
  24	 109
  24	 110
  24	 112
  24	 113
  24	 114
  24	 115
  24	 116
  25	  26
  25	  27
  25	  28
  25	  29
  25	  30
  25	  31
  25	  34
  25	  35
  25	  36
  25	  39
  25	  40
  25	  46
  25	  47
  25	  48
  25	  49
  25	  50
  25	  52
  25	  57
  25	  59
  25	  60
  25	  61
  25	  62
  25	  64
  25	  65
  25	  66
  25	  68
  25	  69
  25	  70
  25	  71
  25	  72
  25	  77
  25	  79
  25	  80
  25	  81
  25	  83
  25	  84
  25	  87
  25	  88
  25	  89
  25	  90
  25	  92
  25	  94
  25	  95
  25	  97
  25	  98
  25	  99
  25	 103
  25	 104
  25	 105
  25	 106
  25	 107
  25	 108
  25	 113
  25	 114
  25	 115
  25	 117
  26	  27
  26	  28
  26	  29
  26	  33
  26	  35
  26	  36
  26	  37
  26	  38
  26	  39
  26	  44
  26	  45
  26	  48
  26	  49
  26	  50
  26	  53
  26	  54
  26	  58
  26	  61
  26	  62
  26	  63
  26	  64
  26	  65
  26	  67
  26	  68
  26	  69
  26	  70
  26	  71
  26	  74
  26	  80
  26	  81
  26	  83
  26	  84
  26	  87
  26	  88
  26	  91
  26	  93
  26	  96
  26	  97
  26	 101
  26	 105
  26	 106
  26	 113
  26	 114
  26	 116
  26	 118
  27	  29
  27	  31
  27	  32
  27	  33
  27	  34
  27	  37
  27	  38
  27	  39
  27	  40
  27	  42
  27	  43
  27	  46
  27	  47
  27	  55
  27	  56
  27	  57
  27	  58
  27	  59
  27	  61
  27	  62
  27	  63
  27	  64
  27	  65
  27	  66
  27	  67
  27	  69
  27	  77
  27	  80
  27	  83
  27	  92
  27	  94
  27	  95
  27	  98
  27	 101
  27	 102
  27	 103
  27	 105
  27	 106
  27	 110
  27	 111
  27	 112
  27	 114
  27	 117
  27	 118
  28	  29
  28	  32
  28	  34
  28	  35
  28	  36
  28	  41
  28	  43
  28	  44
  28	  45
  28	  46
  28	  47
  28	  48
  28	  50
  28	  51
  28	  55
  28	  56
  28	  57
  28	  61
  28	  64
  28	  65
  28	  66
  28	  69
  28	  70
  28	  71
  28	  72
  28	  73
  28	  74
  28	  77
  28	  81
  28	  85
  28	  86
  28	  87
  28	  89
  28	  91
  28	  93
  28	  95
  28	  97
  28	  99
  28	 100
  28	 102
  28	 105
  28	 106
  28	 109
  28	 110
  28	 111
  28	 112
  28	 113
  28	 116
  28	 118
  28	 119
  29	  30
  29	  37
  29	  38
  29	  39
  29	  41
  29	  42
  29	  44
  29	  45
  29	  53
  29	  54
  29	  56
  29	  58
  29	  59
  29	  65
  29	  66
  29	  68
  29	  69
  29	  71
  29	  73
  29	  76
  29	  77
  29	  81
  29	  83
  29	  84
  29	  85
  29	  86
  29	  87
  29	  90
  29	  91
  29	  93
  29	  97
  29	 100
  29	 105
  29	 106
  29	 107
  29	 108
  29	 109
  29	 113
  29	 114
  29	 117
  29	 119
  30	  31
  30	  32
  30	  33
  30	  36
  30	  38
  30	  42
  30	  44
  30	  46
  30	  47
  30	  48
  30	  49
  30	  51
  30	  54
  30	  58
  30	  61
  30	  63
  30	  67
  30	  70
  30	  72
  30	  74
  30	  75
  30	  76
  30	  79
  30	  82
  30	  83
  30	  86
  30	  88
  30	  90
  30	  92
  30	  93
  30	  94
  30	  95
  30	  97
  30	  98
  30	 100
  30	 102
  30	 103
  30	 104
  30	 105
  30	 106
  30	 107
  30	 110
  30	 113
  30	 115
  30	 117
  30	 118
  30	 119
  31	  33
  31	  35
  31	  36
  31	  37
  31	  38
  31	  40
  31	  41
  31	  44
  31	  45
  31	  46
  31	  47
  31	  48
  31	  49
  31	  51
  31	  52
  31	  54
  31	  56
  31	  59
  31	  60
  31	  61
  31	  62
  31	  65
  31	  69
  31	  71
  31	  73
  31	  74
  31	  78
  31	  79
  31	  81
  31	  83
  31	  84
  31	  86
  31	  87
  31	  88
  31	  89
  31	  90
  31	  93
  31	  95
  31	  99
  31	 100
  31	 106
  31	 107
  31	 108
  31	 109
  31	 113
  31	 115
  31	 116
  31	 118
  31	 119
  32	  33
  32	  34
  32	  42
  32	  46
  32	  47
  32	  50
  32	  55
  32	  56
  32	  57
  32	  58
  32	  61
  32	  64
  32	  65
  32	  66
  32	  67
  32	  69
  32	  71
  32	  72
  32	  77
  32	  79
  32	  82
  32	  83
  32	  85
  32	  87
  32	  88
  32	  89
  32	  92
  32	  94
  32	  95
  32	 101
  32	 103
  32	 106
  32	 107
  32	 108
  32	 109
  32	 111
  32	 112
  32	 114
  32	 115
  32	 116
  32	 118
  33	  35
  33	  36
  33	  38
  33	  40
  33	  42
  33	  43
  33	  49
  33	  50
  33	  52
  33	  55
  33	  56
  33	  57
  33	  59
  33	  60
  33	  62
  33	  63
  33	  64
  33	  68
  33	  69
  33	  70
  33	  73
  33	  74
  33	  75
  33	  76
  33	  77
  33	  79
  33	  81
  33	  82
  33	  84
  33	  87
  33	  88
  33	  95
  33	  96
  33	  97
  33	  99
  33	 100
  33	 102
  33	 103
  33	 106
  33	 107
  33	 108
  33	 110
  33	 114
  33	 115
  33	 119
  34	  36
  34	  38
  34	  39
  34	  44
  34	  48
  34	  49
  34	  51
  34	  53
  34	  54
  34	  55
  34	  56
  34	  57
  34	  58
  34	  60
  34	  61
  34	  62
  34	  65
  34	  68
  34	  69
  34	  70
  34	  72
  34	  73
  34	  74
  34	  75
  34	  76
  34	  77
  34	  78
  34	  79
  34	  84
  34	  86
  34	  88
  34	  89
  34	  93
  34	  98
  34	  99
  34	 102
  34	 103
  34	 104
  34	 111
  34	 115
  34	 118
  35	  38
  35	  39
  35	  41
  35	  42
  35	  43
  35	  44
  35	  45
  35	  49
  35	  50
  35	  51
  35	  55
  35	  56
  35	  57
  35	  59
  35	  63
  35	  65
  35	  66
  35	  70
  35	  72
  35	  74
  35	  75
  35	  78
  35	  79
  35	  82
  35	  84
  35	  87
  35	  88
  35	  89
  35	  92
  35	  96
  35	  98
  35	  99
  35	 100
  35	 101
  35	 103
  35	 105
  35	 107
  35	 109
  35	 111
  35	 112
  35	 115
  35	 116
  35	 119
  36	  38
  36	  39
  36	  41
  36	  44
  36	  46
  36	  48
  36	  49
  36	  55
  36	  56
  36	  57
  36	  59
  36	  63
  36	  64
  36	  67
  36	  69
  36	  70
  36	  73
  36	  75
  36	  80
  36	  81
  36	  83
  36	  87
  36	  92
  36	  93
  36	  94
  36	  96
  36	  97
  36	  98
  36	 100
  36	 101
  36	 103
  36	 105
  36	 106
  36	 108
  36	 110
  36	 112
  36	 115
  36	 117
  36	 118
  37	  38
  37	  40
  37	  41
  37	  43
  37	  44
  37	  48
  37	  49
  37	  50
  37	  58
  37	  59
  37	  61
  37	  62
  37	  63
  37	  67
  37	  68
  37	  72
  37	  73
  37	  79
  37	  84
  37	  88
  37	  89
  37	  90
  37	  94
  37	  95
  37	  96
  37	  98
  37	  99
  37	 100
  37	 102
  37	 106
  37	 108
  37	 109
  37	 110
  37	 111
  37	 112
  37	 113
  37	 117
  37	 119
  38	  39
  38	  40
  38	  41
  38	  42
  38	  45
  38	  46
  38	  48
  38	  49
  38	  53
  38	  55
  38	  58
  38	  59
  38	  60
  38	  61
  38	  62
  38	  66
  38	  68
  38	  69
  38	  70
  38	  71
  38	  73
  38	  75
  38	  78
  38	  80
  38	  81
  38	  86
  38	  87
  38	  89
  38	  90
  38	  91
  38	  93
  38	  94
  38	  95
  38	  96
  38	  97
  38	 100
  38	 102
  38	 103
  38	 105
  38	 106
  38	 108
  38	 112
  38	 113
  38	 115
  38	 117
  39	  40
  39	  41
  39	  45
  39	  46
  39	  48
  39	  51
  39	  54
  39	  55
  39	  56
  39	  57
  39	  58
  39	  62
  39	  63
  39	  65
  39	  66
  39	  72
  39	  74
  39	  76
  39	  78
  39	  79
  39	  81
  39	  82
  39	  83
  39	  84
  39	  87
  39	  89
  39	  94
  39	  95
  39	  99
  39	 100
  39	 102
  39	 103
  39	 113
  39	 114
  39	 116
  39	 118
  40	  41
  40	  45
  40	  46
  40	  47
  40	  48
  40	  49
  40	  52
  40	  55
  40	  57
  40	  58
  40	  59
  40	  63
  40	  65
  40	  69
  40	  70
  40	  71
  40	  72
  40	  76
  40	  79
  40	  80
  40	  81
  40	  82
  40	  83
  40	  85
  40	  87
  40	  88
  40	  89
  40	  90
  40	  92
  40	  93
  40	  94
  40	  96
  40	 101
  40	 104
  40	 106
  40	 110
  40	 112
  40	 113
  40	 114
  40	 115
  40	 116
  40	 117
  41	  43
  41	  44
  41	  46
  41	  48
  41	  49
  41	  51
  41	  52
  41	  53
  41	  56
  41	  57
  41	  58
  41	  59
  41	  62
  41	  63
  41	  64
  41	  66
  41	  69
  41	  72
  41	  73
  41	  74
  41	  75
  41	  80
  41	  82
  41	  85
  41	  86
  41	  87
  41	  90
  41	  92
  41	  93
  41	  94
  41	  97
  41	 100
  41	 101
  41	 103
  41	 104
  41	 105
  41	 106
  41	 108
  41	 109
  41	 113
  41	 115
  41	 118
  41	 119
  42	  43
  42	  45
  42	  47
  42	  48
  42	  49
  42	  52
  42	  54
  42	  58
  42	  59
  42	  61
  42	  62
  42	  64
  42	  65
  42	  68
  42	  70
  42	  71
  42	  72
  42	  76
  42	  77
  42	  83
  42	  89
  42	  90
  42	  91
  42	  93
  42	  94
  42	  96
  42	  97
  42	 105
  42	 106
  42	 108
  42	 111
  42	 112
  42	 113
  42	 114
  42	 117
  43	  46
  43	  48
  43	  51
  43	  52
  43	  53
  43	  57
  43	  59
  43	  61
  43	  63
  43	  64
  43	  65
  43	  66
  43	  69
  43	  70
  43	  74
  43	  75
  43	  78
  43	  81
  43	  83
  43	  84
  43	  85
  43	  87
  43	  90
  43	  91
  43	  92
  43	  93
  43	  94
  43	  96
  43	  97
  43	  98
  43	 102
  43	 105
  43	 106
  43	 108
  43	 109
  43	 111
  43	 115
  43	 118
  44	  45
  44	  46
  44	  48
  44	  50
  44	  55
  44	  57
  44	  59
  44	  62
  44	  66
  44	  71
  44	  72
  44	  78
  44	  80
  44	  83
  44	  84
  44	  85
  44	  89
  44	  90
  44	  91
  44	  92
  44	  93
  44	  97
  44	  99
  44	 101
  44	 102
  44	 104
  44	 106
  44	 107
  44	 108
  44	 112
  44	 113
  44	 114
  44	 117
  44	 118
  44	 119
  45	  46
  45	  47
  45	  52
  45	  53
  45	  56
  45	  59
  45	  60
  45	  62
  45	  63
  45	  64
  45	  68
  45	  69
  45	  70
  45	  72
  45	  73
  45	  74
  45	  75
  45	  78
  45	  79
  45	  80
  45	  83
  45	  85
  45	  87
  45	  90
  45	  94
  45	  95
  45	  96
  45	  97
  45	  98
  45	  99
  45	 106
  45	 108
  45	 111
  45	 112
  46	  47
  46	  48
  46	  49
  46	  51
  46	  55
  46	  58
  46	  59
  46	  61
  46	  62
  46	  63
  46	  69
  46	  70
  46	  72
  46	  73
  46	  75
  46	  78
  46	  79
  46	  80
  46	  82
  46	  83
  46	  84
  46	  88
  46	  89
  46	  90
  46	  93
  46	  97
  46	 100
  46	 101
  46	 102
  46	 103
  46	 106
  46	 108
  46	 110
  46	 113
  46	 114
  46	 115
  46	 117
  46	 118
  46	 119
  47	  49
  47	  50
  47	  51
  47	  56
  47	  57
  47	  59
  47	  60
  47	  61
  47	  64
  47	  65
  47	  68
  47	  70
  47	  71
  47	  73
  47	  74
  47	  76
  47	  77
  47	  78
  47	  81
  47	  83
  47	  84
  47	  85
  47	  86
  47	  87
  47	  88
  47	  90
  47	  92
  47	  93
  47	  95
  47	  96
  47	 100
  47	 101
  47	 102
  47	 103
  47	 105
  47	 106
  47	 109
  47	 111
  47	 113
  47	 115
  47	 116
  47	 117
  47	 118
  47	 119
  48	  52
  48	  54
  48	  55
  48	  57
  48	  60
  48	  63
  48	  65
  48	  68
  48	  69
  48	  71
  48	  72
  48	  73
  48	  74
  48	  77
  48	  78
  48	  79
  48	  80
  48	  86
  48	  87
  48	  88
  48	  89
  48	  91
  48	  95
  48	  96
  48	  98
  48	  99
  48	 102
  48	 103
  48	 104
  48	 105
  48	 106
  48	 109
  48	 114
  48	 117
  48	 118
  49	  50
  49	  51
  49	  52
  49	  53
  49	  56
  49	  57
  49	  58
  49	  59
  49	  63
  49	  65
  49	  66
  49	  69
  49	  71
  49	  74
  49	  75
  49	  78
  49	  79
  49	  80
  49	  82
  49	  83
  49	  84
  49	  87
  49	  89
  49	  93
  49	  95
  49	  97
  49	 102
  49	 103
  49	 104
  49	 105
  49	 108
  49	 110
  49	 111
  49	 115
  49	 116
  49	 118
  49	 119
  50	  52
  50	  54
  50	  55
  50	  57
  50	  59
  50	  60
  50	  64
  50	  65
  50	  68
  50	  72
  50	  73
  50	  74
  50	  77
  50	  78
  50	  79
  50	  80
  50	  84
  50	  87
  50	  90
  50	  91
  50	  93
  50	  95
  50	  96
  50	  98
  50	  99
  50	 100
  50	 102
  50	 104
  50	 107
  50	 108
  50	 113
  50	 114
  50	 115
  50	 116
  50	 117
  50	 118
  50	 119
  51	  53
  51	  56
  51	  61
  51	  62
  51	  63
  51	  65
  51	  70
  51	  71
  51	  73
  51	  74
  51	  75
  51	  78
  51	  83
  51	  88
  51	  90
  51	  97
  51	 100
  51	 101
  51	 104
  51	 105
  51	 106
  51	 107
  51	 109
  51	 110
  51	 111
  51	 119
  52	  53
  52	  55
  52	  59
  52	  60
  52	  62
  52	  63
  52	  64
  52	  73
  52	  76
  52	  79
  52	  83
  52	  89
  52	  91
  52	  92
  52	  93
  52	  95
  52	 101
  52	 103
  52	 105
  52	 106
  52	 107
  52	 108
  52	 109
  52	 110
  52	 111
  52	 113
  52	 114
  52	 117
  52	 119
  53	  54
  53	  55
  53	  56
  53	  60
  53	  62
  53	  66
  53	  69
  53	  70
  53	  71
  53	  72
  53	  73
  53	  76
  53	  78
  53	  79
  53	  80
  53	  81
  53	  86
  53	  87
  53	  89
  53	  93
  53	  94
  53	  95
  53	  98
  53	 100
  53	 102
  53	 104
  53	 105
  53	 107
  53	 109
  53	 110
  53	 111
  53	 113
  53	 114
  53	 115
  53	 117
  54	  60
  54	  61
  54	  63
  54	  65
  54	  66
  54	  67
  54	  68
  54	  70
  54	  71
  54	  73
  54	  74
  54	  76
  54	  77
  54	  78
  54	  79
  54	  81
  54	  84
  54	  86
  54	  87
  54	  89
  54	  91
  54	  97
  54	 103
  54	 107
  54	 109
  54	 110
  54	 111
  54	 113
  54	 114
  55	  57
  55	  59
  55	  61
  55	  62
  55	  64
  55	  69
  55	  70
  55	  72
  55	  73
  55	  76
  55	  77
  55	  78
  55	  83
  55	  85
  55	  95
  55	  96
  55	  97
  55	  99
  55	 100
  55	 102
  55	 104
  55	 105
  55	 107
  55	 111
  55	 112
  55	 113
  55	 115
  55	 118
  55	 119
  56	  57
  56	  60
  56	  61
  56	  63
  56	  69
  56	  70
  56	  73
  56	  74
  56	  75
  56	  76
  56	  77
  56	  83
  56	  90
  56	  91
  56	  93
  56	  96
  56	  97
  56	 100
  56	 102
  56	 103
  56	 105
  56	 108
  56	 109
  56	 111
  56	 112
  56	 119
  57	  58
  57	  62
  57	  63
  57	  66
  57	  68
  57	  69
  57	  70
  57	  73
  57	  76
  57	  80
  57	  81
  57	  83
  57	  86
  57	  87
  57	  91
  57	  92
  57	  97
  57	  98
  57	  99
  57	 100
  57	 101
  57	 104
  57	 106
  57	 109
  57	 110
  57	 111
  57	 112
  57	 115
  57	 117
  57	 118
  57	 119
  58	  59
  58	  62
  58	  64
  58	  66
  58	  73
  58	  74
  58	  75
  58	  77
  58	  78
  58	  84
  58	  86
  58	  87
  58	  88
  58	  90
  58	  92
  58	  93
  58	  94
  58	  95
  58	  99
  58	 101
  58	 104
  58	 110
  58	 112
  58	 113
  58	 114
  58	 115
  58	 117
  58	 119
  59	  61
  59	  62
  59	  63
  59	  66
  59	  67
  59	  69
  59	  71
  59	  72
  59	  74
  59	  78
  59	  79
  59	  80
  59	  81
  59	  83
  59	  85
  59	  87
  59	  90
  59	  93
  59	  94
  59	  97
  59	  98
  59	 100
  59	 103
  59	 104
  59	 105
  59	 106
  59	 107
  59	 111
  59	 112
  59	 114
  59	 118
  60	  62
  60	  68
  60	  70
  60	  72
  60	  73
  60	  74
  60	  75
  60	  76
  60	  77
  60	  81
  60	  88
  60	  89
  60	  91
  60	  98
  60	 100
  60	 101
  60	 102
  60	 106
  60	 109
  60	 112
  60	 118
  60	 119
  61	  62
  61	  63
  61	  65
  61	  66
  61	  67
  61	  68
  61	  70
  61	  71
  61	  74
  61	  77
  61	  81
  61	  84
  61	  86
  61	  88
  61	  92
  61	  94
  61	  95
  61	  96
  61	 100
  61	 101
  61	 102
  61	 105
  61	 108
  61	 109
  61	 111
  61	 113
  61	 114
  61	 115
  61	 116
  61	 118
  62	  65
  62	  66
  62	  67
  62	  68
  62	  69
  62	  71
  62	  72
  62	  73
  62	  74
  62	  75
  62	  76
  62	  83
  62	  84
  62	  85
  62	  86
  62	  87
  62	  90
  62	  91
  62	  95
  62	  96
  62	 101
  62	 102
  62	 103
  62	 104
  62	 106
  62	 107
  62	 108
  62	 113
  62	 115
  63	  66
  63	  67
  63	  69
  63	  71
  63	  72
  63	  78
  63	  80
  63	  83
  63	  84
  63	  85
  63	  87
  63	  88
  63	  90
  63	  91
  63	  94
  63	  98
  63	  99
  63	 100
  63	 101
  63	 103
  63	 104
  63	 106
  63	 107
  63	 108
  63	 111
  63	 115
  63	 116
  63	 117
  63	 118
  64	  67
  64	  68
  64	  69
  64	  70
  64	  71
  64	  72
  64	  73
  64	  74
  64	  76
  64	  77
  64	  78
  64	  79
  64	  81
  64	  84
  64	  85
  64	  88
  64	  89
  64	  91
  64	  95
  64	  97
  64	  98
  64	 100
  64	 102
  64	 106
  64	 107
  64	 110
  64	 114
  64	 118
  65	  71
  65	  74
  65	  76
  65	  79
  65	  80
  65	  81
  65	  83
  65	  84
  65	  85
  65	  88
  65	  89
  65	  92
  65	  93
  65	  94
  65	 100
  65	 101
  65	 103
  65	 104
  65	 106
  65	 108
  65	 110
  65	 111
  65	 112
  65	 114
  65	 116
  65	 118
  66	  69
  66	  70
  66	  71
  66	  72
  66	  74
  66	  75
  66	  78
  66	  82
  66	  84
  66	  86
  66	  89
  66	  90
  66	  93
  66	  95
  66	  96
  66	  99
  66	 100
  66	 104
  66	 108
  66	 111
  66	 115
  66	 116
  66	 118
  66	 119
  67	  68
  67	  70
  67	  71
  67	  74
  67	  75
  67	  80
  67	  82
  67	  84
  67	  85
  67	  87
  67	  90
  67	  93
  67	  94
  67	  97
  67	  98
  67	  99
  67	 100
  67	 102
  67	 104
  67	 105
  67	 107
  67	 109
  67	 110
  67	 113
  67	 115
  68	  73
  68	  74
  68	  77
  68	  78
  68	  81
  68	  82
  68	  83
  68	  84
  68	  87
  68	  88
  68	  90
  68	  91
  68	  95
  68	  96
  68	  98
  68	 102
  68	 107
  68	 108
  68	 109
  68	 110
  68	 111
  68	 112
  68	 115
  68	 117
  68	 119
  69	  70
  69	  73
  69	  76
  69	  77
  69	  78
  69	  79
  69	  82
  69	  83
  69	  84
  69	  86
  69	  89
  69	  90
  69	  91
  69	  92
  69	  93
  69	  95
  69	  98
  69	 103
  69	 104
  69	 105
  69	 106
  69	 108
  69	 110
  69	 112
  69	 113
  69	 115
  69	 116
  69	 117
  69	 119
  70	  71
  70	  72
  70	  74
  70	  81
  70	  82
  70	  83
  70	  84
  70	  85
  70	  87
  70	  88
  70	  89
  70	  91
  70	  93
  70	  94
  70	  95
  70	  99
  70	 100
  70	 103
  70	 110
  70	 115
  70	 116
  70	 118
  70	 119
  71	  74
  71	  76
  71	  77
  71	  78
  71	  79
  71	  84
  71	  87
  71	  89
  71	  90
  71	  91
  71	  92
  71	  94
  71	  97
  71	  98
  71	  99
  71	 101
  71	 103
  71	 104
  71	 105
  71	 106
  71	 108
  71	 111
  71	 116
  71	 118
  71	 119
  72	  73
  72	  78
  72	  81
  72	  82
  72	  83
  72	  84
  72	  86
  72	  87
  72	  89
  72	  90
  72	  93
  72	  95
  72	  97
  72	  98
  72	  99
  72	 101
  72	 103
  72	 108
  72	 109
  72	 110
  72	 113
  72	 114
  72	 118
  72	 119
  73	  75
  73	  79
  73	  80
  73	  81
  73	  83
  73	  84
  73	  87
  73	  90
  73	  91
  73	  94
  73	  95
  73	  98
  73	 100
  73	 101
  73	 102
  73	 103
  73	 105
  73	 107
  73	 108
  73	 109
  73	 110
  73	 111
  73	 112
  73	 113
  73	 115
  73	 116
  73	 118
  74	  75
  74	  76
  74	  81
  74	  83
  74	  84
  74	  85
  74	  86
  74	  89
  74	  90
  74	  92
  74	  96
  74	  99
  74	 100
  74	 101
  74	 102
  74	 103
  74	 104
  74	 105
  74	 106
  74	 108
  74	 111
  74	 113
  74	 114
  74	 117
  74	 118
  74	 119
  75	  76
  75	  80
  75	  81
  75	  82
  75	  83
  75	  84
  75	  86
  75	  87
  75	  89
  75	  96
  75	  98
  75	 103
  75	 104
  75	 107
  75	 108
  75	 111
  75	 113
  75	 115
  75	 117
  75	 119
  76	  78
  76	  80
  76	  81
  76	  83
  76	  85
  76	  88
  76	  91
  76	  92
  76	  93
  76	  94
  76	  96
  76	  97
  76	  98
  76	  99
  76	 100
  76	 103
  76	 104
  76	 106
  76	 108
  76	 111
  76	 114
  76	 117
  76	 118
  77	  79
  77	  80
  77	  82
  77	  85
  77	  88
  77	  90
  77	  92
  77	  96
  77	  98
  77	  99
  77	 100
  77	 102
  77	 105
  77	 106
  77	 108
  77	 111
  77	 116
  77	 117
  77	 118
  78	  79
  78	  80
  78	  81
  78	  83
  78	  84
  78	  85
  78	  87
  78	  89
  78	  90
  78	  91
  78	  95
  78	  97
  78	  98
  78	 101
  78	 106
  78	 109
  78	 110
  78	 111
  78	 112
  78	 113
  78	 114
  78	 115
  78	 116
  78	 118
  78	 119
  79	  81
  79	  83
  79	  84
  79	  86
  79	  89
  79	  91
  79	  93
  79	  98
  79	  99
  79	 102
  79	 106
  79	 107
  79	 108
  79	 110
  79	 115
  79	 116
  79	 117
  79	 119
  80	  83
  80	  86
  80	  88
  80	  92
  80	  93
  80	  94
  80	  95
  80	  97
  80	 100
  80	 101
  80	 102
  80	 104
  80	 107
  80	 108
  80	 109
  80	 110
  80	 111
  80	 112
  80	 113
  80	 114
  80	 115
  80	 116
  80	 118
  81	  83
  81	  84
  81	  85
  81	  86
  81	  90
  81	  91
  81	  92
  81	  93
  81	  95
  81	  98
  81	  99
  81	 100
  81	 101
  81	 102
  81	 105
  81	 107
  81	 109
  81	 110
  81	 112
  81	 113
  81	 117
  82	  83
  82	  84
  82	  85
  82	  86
  82	  88
  82	  89
  82	  94
  82	  95
  82	  96
  82	  98
  82	 101
  82	 102
  82	 105
  82	 106
  82	 110
  82	 111
  82	 112
  82	 114
  82	 115
  82	 116
  83	  84
  83	  86
  83	  87
  83	  88
  83	  89
  83	  94
  83	  96
  83	  97
  83	  98
  83	 102
  83	 103
  83	 105
  83	 109
  83	 110
  83	 113
  83	 115
  84	  85
  84	  87
  84	  89
  84	  91
  84	  92
  84	  93
  84	  95
  84	  98
  84	 104
  84	 105
  84	 109
  84	 110
  84	 112
  84	 113
  84	 116
  84	 118
  84	 119
  85	  86
  85	  87
  85	  89
  85	  90
  85	  91
  85	  92
  85	  93
  85	  94
  85	  95
  85	  97
  85	  98
  85	 100
  85	 102
  85	 103
  85	 104
  85	 106
  85	 107
  85	 109
  85	 111
  85	 115
  85	 117
  86	  87
  86	  88
  86	  89
  86	  93
  86	  95
  86	  98
  86	  99
  86	 100
  86	 102
  86	 107
  86	 108
  86	 110
  86	 113
  86	 114
  86	 115
  86	 117
  86	 118
  87	  90
  87	  91
  87	  93
  87	  94
  87	  97
  87	  98
  87	 103
  87	 104
  87	 105
  87	 107
  87	 108
  87	 109
  87	 110
  87	 112
  87	 114
  87	 118
  87	 119
  88	  93
  88	  94
  88	  95
  88	  97
  88	  98
  88	 101
  88	 102
  88	 103
  88	 104
  88	 106
  88	 107
  88	 109
  88	 110
  88	 112
  88	 114
  88	 117
  88	 119
  89	  92
  89	  94
  89	  96
  89	  98
  89	 100
  89	 101
  89	 102
  89	 104
  89	 105
  89	 106
  89	 107
  89	 108
  89	 109
  89	 111
  89	 115
  89	 118
  89	 119
  90	  91
  90	  92
  90	  93
  90	  97
  90	  98
  90	  99
  90	 100
  90	 102
  90	 104
  90	 107
  90	 109
  90	 110
  90	 113
  90	 114
  90	 116
  90	 117
  91	  92
  91	  95
  91	  97
  91	  98
  91	 100
  91	 102
  91	 103
  91	 106
  91	 108
  91	 110
  91	 114
  91	 115
  91	 116
  91	 118
  92	  96
  92	  97
  92	  99
  92	 101
  92	 102
  92	 104
  92	 105
  92	 106
  92	 108
  92	 112
  92	 114
  92	 115
  92	 118
  93	  96
  93	  97
  93	  98
  93	  99
  93	 100
  93	 102
  93	 103
  93	 108
  93	 110
  93	 113
  93	 118
  93	 119
  94	  98
  94	 101
  94	 104
  94	 106
  94	 107
  94	 109
  94	 110
  94	 113
  94	 114
  94	 115
  94	 117
  94	 118
  95	  98
  95	  99
  95	 101
  95	 106
  95	 107
  95	 108
  95	 109
  95	 113
  95	 115
  95	 118
  95	 119
  96	  97
  96	  99
  96	 101
  96	 102
  96	 103
  96	 105
  96	 107
  96	 108
  96	 109
  96	 110
  96	 111
  96	 112
  96	 115
  96	 116
  96	 117
  96	 118
  97	  98
  97	  99
  97	 100
  97	 101
  97	 102
  97	 103
  97	 107
  97	 109
  97	 111
  97	 113
  97	 116
  97	 117
  97	 118
  97	 119
  98	 100
  98	 101
  98	 102
  98	 105
  98	 107
  98	 109
  98	 114
  98	 117
  98	 119
  99	 100
  99	 101
  99	 102
  99	 105
  99	 106
  99	 108
  99	 109
  99	 112
  99	 113
  99	 114
  99	 115
  99	 116
  99	 117
  99	 118
  99	 119
 100	 102
 100	 104
 100	 105
 100	 106
 100	 108
 100	 109
 100	 112
 100	 113
 100	 114
 100	 115
 100	 117
 101	 102
 101	 107
 101	 108
 101	 109
 101	 110
 101	 114
 101	 117
 102	 103
 102	 104
 102	 107
 102	 108
 102	 110
 102	 111
 102	 112
 102	 115
 102	 117
 103	 105
 103	 106
 103	 108
 103	 109
 103	 112
 103	 113
 103	 117
 104	 106
 104	 107
 104	 109
 104	 111
 104	 112
 104	 113
 104	 114
 104	 116
 104	 117
 104	 118
 104	 119
 105	 110
 105	 111
 105	 113
 105	 114
 105	 119
 106	 108
 106	 109
 106	 111
 106	 113
 106	 115
 106	 118
 107	 108
 107	 109
 107	 111
 107	 113
 107	 115
 107	 116
 107	 117
 107	 118
 108	 109
 108	 110
 108	 112
 108	 114
 108	 115
 108	 117
 108	 118
 109	 111
 109	 116
 109	 118
 110	 111
 110	 114
 110	 115
 110	 116
 110	 118
 110	 119
 111	 115
 111	 117
 111	 118
 111	 119
 112	 113
 112	 114
 112	 117
 113	 114
 113	 117
 113	 119
 114	 118
 114	 119
 115	 116
 115	 117
 116	 117
 116	 119
 117	 119
 118	 119
;
